WARNING: for repeatability, setting FPU to use double precision
============================[ Problem Statistics ]=============================
|                                                                             |
|  Number of variables:          6565                                         |
|  Number of clauses:           20438                                         |
|  Parse time:                   0.00 s                                       |
|                                                                             |
============================[ Search Statistics ]==============================
| Conflicts |          ORIGINAL         |          LEARNT          | Progress |
|           |    Vars  Clauses Literals |    Limit  Clauses Lit/Cl |          |
===============================================================================
|       100 |    6214    18707    45380 |     6859       98      6 |  5.348 % |
|       250 |    6214    18652    45266 |     7545      248     12 |  5.347 % |
|       475 |    6214    18652    45266 |     8299      473     15 |  5.347 % |
|       812 |    6214    18652    45266 |     9129      810     24 |  5.347 % |
|      1318 |    6213    18648    45258 |    10042     1315     26 |  5.362 % |
|      2077 |    6213    18648    45258 |    11046     2074     29 |  5.362 % |
|      3216 |    6213    18648    45258 |    12151     3213     28 |  5.362 % |
|      4924 |    6213    18648    45258 |    13366     4921     28 |  5.362 % |
|      7486 |    6213    18648    45258 |    14703     7483     29 |  5.362 % |
|     11330 |    6213    18648    45258 |    16173    11327     31 |  5.362 % |
|     17096 |    6213    18648    45258 |    17791    17093     31 |  5.362 % |
|     25745 |    6213    18648    45258 |    19570    16326     27 |  5.363 % |
|     38719 |    6213    18648    45258 |    21527    19174     27 |  5.362 % |
|     58180 |    6212    18642    45246 |    23679    16235     24 |  5.378 % |
|     87372 |    6212    18642    45246 |    26047    21066     25 |  5.378 % |
|    131161 |    6212    18642    45246 |    28652    24210     25 |  5.377 % |
===============================================================================
restarts              : 419
conflicts             : 156180         (9954 /sec)
decisions             : 191837         (0.00 % random) (12227 /sec)
propagations          : 147637776      (9409673 /sec)
conflict literals     : 4769545        (61.87 % deleted)
Memory used           : 30.00 MB
CPU time              : 15.69 s

UNSATISFIABLE
